c colouring generated by benchmark framework
p edge 250 3218
v 1 9
v 2 9
v 3 7
v 4 0
v 5 7
v 6 3
v 7 5
v 8 2
v 9 3
v 10 1
v 11 2
v 12 8
v 13 1
v 14 3
v 15 4
v 16 9
v 17 10
v 18 8
v 19 9
v 20 8
v 21 6
v 22 9
v 23 2
v 24 3
v 25 2
v 26 5
v 27 4
v 28 6
v 29 0
v 30 6
v 31 0
v 32 10
v 33 2
v 34 6
v 35 4
v 36 0
v 37 6
v 38 0
v 39 9
v 40 8
v 41 4
v 42 9
v 43 6
v 44 3
v 45 10
v 46 8
v 47 3
v 48 1
v 49 3
v 50 3
v 51 0
v 52 9
v 53 1
v 54 5
v 55 9
v 56 7
v 57 6
v 58 10
v 59 4
v 60 10
v 61 3
v 62 7
v 63 5
v 64 3
v 65 8
v 66 8
v 67 8
v 68 8
v 69 4
v 70 0
v 71 5
v 72 9
v 73 7
v 74 0
v 75 10
v 76 0
v 77 5
v 78 3
v 79 1
v 80 6
v 81 1
v 82 5
v 83 2
v 84 9
v 85 5
v 86 7
v 87 1
v 88 4
v 89 3
v 90 5
v 91 8
v 92 1
v 93 10
v 94 10
v 95 0
v 96 6
v 97 10
v 98 0
v 99 10
v 100 5
v 101 10
v 102 10
v 103 4
v 104 9
v 105 8
v 106 4
v 107 10
v 108 10
v 109 7
v 110 8
v 111 2
v 112 5
v 113 1
v 114 2
v 115 4
v 116 3
v 117 10
v 118 4
v 119 9
v 120 9
v 121 8
v 122 5
v 123 0
v 124 4
v 125 5
v 126 3
v 127 0
v 128 0
v 129 7
v 130 8
v 131 8
v 132 6
v 133 4
v 134 7
v 135 2
v 136 9
v 137 2
v 138 0
v 139 6
v 140 4
v 141 2
v 142 0
v 143 8
v 144 5
v 145 9
v 146 0
v 147 5
v 148 4
v 149 7
v 150 0
v 151 8
v 152 7
v 153 7
v 154 8
v 155 2
v 156 10
v 157 4
v 158 9
v 159 8
v 160 4
v 161 3
v 162 3
v 163 7
v 164 0
v 165 10
v 166 7
v 167 7
v 168 1
v 169 6
v 170 9
v 171 1
v 172 5
v 173 2
v 174 8
v 175 9
v 176 6
v 177 3
v 178 1
v 179 5
v 180 2
v 181 6
v 182 3
v 183 7
v 184 6
v 185 8
v 186 1
v 187 0
v 188 1
v 189 0
v 190 8
v 191 4
v 192 5
v 193 9
v 194 0
v 195 6
v 196 0
v 197 1
v 198 10
v 199 6
v 200 2
v 201 4
v 202 5
v 203 5
v 204 2
v 205 7
v 206 4
v 207 1
v 208 7
v 209 3
v 210 9
v 211 5
v 212 9
v 213 8
v 214 6
v 215 0
v 216 0
v 217 8
v 218 6
v 219 2
v 220 1
v 221 6
v 222 8
v 223 7
v 224 10
v 225 2
v 226 7
v 227 4
v 228 1
v 229 9
v 230 6
v 231 6
v 232 1
v 233 5
v 234 4
v 235 2
v 236 6
v 237 2
v 238 9
v 239 4
v 240 1
v 241 7
v 242 7
v 243 3
v 244 2
v 245 6
v 246 8
v 247 10
v 248 10
v 249 4
v 250 5
